
******************************************************************************
This program contains Ipopt, a library for large-scale nonlinear optimization.
 Ipopt is released as open source code under the Eclipse Public License (EPL).
         For more information visit http://projects.coin-or.org/Ipopt

This version of Ipopt was compiled from source code available at
    https://github.com/IDAES/Ipopt as part of the Institute for the Design of
    Advanced Energy Systems Process Systems Engineering Framework (IDAES PSE
    Framework) Copyright (c) 2018-2019. See https://github.com/IDAES/idaes-pse.

This version of Ipopt was compiled using HSL, a collection of Fortran codes
    for large-scale scientific computation.  All technical papers, sales and
    publicity material resulting from use of the HSL codes within IPOPT must
    contain the following acknowledgement:
        HSL, a collection of Fortran codes for large-scale scientific
        computation. See http://www.hsl.rl.ac.uk.
******************************************************************************

This is Ipopt version 3.13.2, running with linear solver ma27.

Number of nonzeros in equality constraint Jacobian...:      928
Number of nonzeros in inequality constraint Jacobian.:        0
Number of nonzeros in Lagrangian Hessian.............:      806

Total number of variables............................:      403
                     variables with only lower bounds:      124
                variables with lower and upper bounds:      217
                     variables with only upper bounds:        0
Total number of equality constraints.................:      402
Total number of inequality constraints...............:        0
        inequality constraints with only lower bounds:        0
   inequality constraints with lower and upper bounds:        0
        inequality constraints with only upper bounds:        0

iter    objective    inf_pr   inf_du lg(mu)  ||d||  lg(rg) alpha_du alpha_pr  ls
   0  0.0000000e+00 1.12e+00 8.88e-16  -1.0 0.00e+00    -  0.00e+00 0.00e+00   0
   1  8.5292279e-01 7.85e-01 1.98e+04  -1.0 1.57e+05    -  4.69e-01 3.57e-01h  1
   2  8.7940659e-01 7.79e-01 1.99e+04  -1.0 1.29e+05    -  5.57e-01 8.22e-03h  1
   3  7.9009627e+00 3.01e-01 2.58e+04  -1.0 1.51e+05    -  5.70e-01 7.85e-01h  1
   4  1.2835335e+01 4.00e-02 6.02e+03  -1.0 4.41e+04    -  8.89e-01 9.90e-01h  1
   5  1.3019092e+01 1.17e-03 6.22e+01  -1.0 1.40e+03    -  9.88e-01 9.90e-01h  1
   6  1.3032606e+01 1.39e-05 7.04e+00  -1.0 2.57e+02    -  9.90e-01 9.90e-01h  1
   7  1.3194083e+01 4.48e-05 2.87e+03  -1.0 3.48e+03    -  9.90e-01 9.90e-01H  1
   8  1.3023146e+01 2.09e-03 7.31e+07  -2.5 5.63e+03    -  9.97e-01 6.43e-01f  1
   9  1.3024077e+01 1.76e-05 1.84e+06  -2.5 2.50e+01    -  1.00e+00 9.97e-01h  1
iter    objective    inf_pr   inf_du lg(mu)  ||d||  lg(rg) alpha_du alpha_pr  ls
  10  1.3023813e+01 4.76e-08 5.77e+08  -2.5 5.62e+00    -  1.00e+00 9.97e-01h  1
In iteration 10, 31 Slacks too small, adjusting variable bounds
  11  1.3023812e+01 1.36e-10 2.04e+11  -2.5 1.92e-02    -  1.00e+00 9.97e-01h  1
  12  1.3023812e+01 2.90e-12 7.32e-03  -2.5 5.42e-05    -  1.00e+00 1.00e+00h  1
  13  1.3023790e+01 5.24e-11 2.04e+11  -9.0 6.20e+01    -  1.00e+00 7.70e-03f  8
  14  1.3020942e+01 5.76e-11 6.83e+06  -9.0 6.06e+01    -  1.00e+00 1.00e+00F  1
  15  1.3020942e+01 8.97e-12 6.84e-10  -9.0 1.83e-05    -  1.00e+00 1.00e+00h  1

Number of Iterations....: 15

                                   (scaled)                 (unscaled)
Objective...............:   1.3020942490162515e+01    1.3020942490162515e+01
Dual infeasibility......:   6.8394001573324203e-10    6.8394001573324203e-10
Constraint violation....:   8.9670493252924643e-12    8.9670493252924643e-12
Complementarity.........:   9.0910183676743774e-10    9.0910183676743774e-10
Overall NLP error.......:   2.4855583055497969e-11    9.0910183676743774e-10


Number of objective function evaluations             = 30
Number of objective gradient evaluations             = 16
Number of equality constraint evaluations            = 30
Number of inequality constraint evaluations          = 0
Number of equality constraint Jacobian evaluations   = 16
Number of inequality constraint Jacobian evaluations = 0
Number of Lagrangian Hessian evaluations             = 15
Total CPU secs in IPOPT (w/o function evaluations)   =      0.027
Total CPU secs in NLP function evaluations           =      0.323

EXIT: Optimal Solution Found.
